sat
(:added-eqs                       6530
 :arith-eq-adapter                342
 :arith-bound-propagations-lp     186
 :arith-branch                    7
 :arith-conflicts                 1211
 :arith-cube-calls                1
 :arith-diseq                     445
 :arith-fixed-eqs                 504
 :arith-gcd-calls                 132
 :arith-gomory-cuts               2
 :arith-grobner-calls             121
 :arith-grobner-conflicts         108
 :arith-hnf-calls                 1
 :arith-horner-calls              26
 :arith-horner-conflicts          1
 :arith-horner-cross-nested-forms 15652
 :arith-lower                     1676
 :arith-make-feasible             2505
 :arith-max-columns               1836
 :arith-max-rows                  839
 :arith-nla-add-bounds            3
 :arith-nla-lemmas                569
 :arith-nla-propagate-bounds      530
 :arith-nla-propagate-eq          7466
 :arith-nra-calls                 28
 :arith-offset-eqs                1013
 :arith-patches                   131
 :arith-patches-success           120
 :arith-upper                     3139
 :binary-propagations             1674
 :cnf-encoding-aux-vars           28
 :conflicts                       168
 :decisions                       3132
 :del-clause                      652
 :elim-unconstrained              23
 :final-checks                    290
 :max-memory                      114.50
 :memory                          58.84
 :minimized-lits                  149
 :mk-bool-var                     3656
 :mk-clause                       1295
 :mk-clause-binary                8136
 :nlsat-conflicts                 2438
 :nlsat-decisions                 475
 :nlsat-propagations              211380
 :nlsat-restarts                  5
 :nlsat-stages                    152613
 :num-allocs                      3553898360
 :num-checks                      1
 :propagations                    3451
 :restarts                        1
 :rlimit-count                    3535037
 :sat-mk-clause-2ary              132847
 :sat-mk-clause-nary              197268
 :sat-mk-var                      94888
 :sls-arith-moves                 2380
 :sls-ddfw-flips                  4633.00
 :sls-ddfw-shifts                 4.00
 :sls-num-guided-search           10
 :solve-eqs-elim-vars             147
 :solve-eqs-steps                 2446
 :time                            2.39
 :total-time                      2.40)
